c generated by sgen
p cnf 77 164
-2 -3 -4 0
-1 -3 -4 0
-1 -2 -4 0
-1 -2 -3 0
-6 -7 -8 0
-5 -7 -8 0
-5 -6 -8 0
-5 -6 -7 0
-10 -11 -12 0
-9 -11 -12 0
-9 -10 -12 0
-9 -10 -11 0
-14 -15 -16 0
-13 -15 -16 0
-13 -14 -16 0
-13 -14 -15 0
-18 -19 -20 0
-17 -19 -20 0
-17 -18 -20 0
-17 -18 -19 0
-22 -23 -24 0
-21 -23 -24 0
-21 -22 -24 0
-21 -22 -23 0
-26 -27 -28 0
-25 -27 -28 0
-25 -26 -28 0
-25 -26 -27 0
-30 -31 -32 0
-29 -31 -32 0
-29 -30 -32 0
-29 -30 -31 0
-34 -35 -36 0
-33 -35 -36 0
-33 -34 -36 0
-33 -34 -35 0
-38 -39 -40 0
-37 -39 -40 0
-37 -38 -40 0
-37 -38 -39 0
-42 -43 -44 0
-41 -43 -44 0
-41 -42 -44 0
-41 -42 -43 0
-46 -47 -48 0
-45 -47 -48 0
-45 -46 -48 0
-45 -46 -47 0
-50 -51 -52 0
-49 -51 -52 0
-49 -50 -52 0
-49 -50 -51 0
-54 -55 -56 0
-53 -55 -56 0
-53 -54 -56 0
-53 -54 -55 0
-58 -59 -60 0
-57 -59 -60 0
-57 -58 -60 0
-57 -58 -59 0
-62 -63 -64 0
-61 -63 -64 0
-61 -62 -64 0
-61 -62 -63 0
-66 -67 -68 0
-65 -67 -68 0
-65 -66 -68 0
-65 -66 -67 0
-70 -71 -72 0
-69 -71 -72 0
-69 -70 -72 0
-69 -70 -71 0
-73 -74 -75 0
-73 -74 -76 0
-73 -74 -77 0
-73 -75 -76 0
-73 -75 -77 0
-73 -76 -77 0
-74 -75 -76 0
-74 -75 -77 0
-74 -76 -77 0
-75 -76 -77 0
67 7 32 0
74 7 32 0
74 67 32 0
74 67 7 0
72 47 11 0
73 47 11 0
73 72 11 0
73 72 47 0
75 50 3 0
58 50 3 0
58 75 3 0
58 75 50 0
42 2 63 0
28 2 63 0
28 42 63 0
28 42 2 0
40 49 9 0
68 49 9 0
68 40 9 0
68 40 49 0
27 12 30 0
14 12 30 0
14 27 30 0
14 27 12 0
10 77 54 0
17 77 54 0
17 10 54 0
17 10 77 0
69 29 18 0
60 29 18 0
60 69 18 0
60 69 29 0
23 35 76 0
37 35 76 0
37 23 76 0
37 23 35 0
66 64 55 0
34 64 55 0
34 66 55 0
34 66 64 0
71 13 24 0
41 13 24 0
41 71 24 0
41 71 13 0
16 4 36 0
20 4 36 0
20 16 36 0
20 16 4 0
39 59 25 0
8 59 25 0
8 39 25 0
8 39 59 0
48 65 22 0
26 65 22 0
26 48 22 0
26 48 65 0
6 56 1 0
70 56 1 0
70 6 1 0
70 6 56 0
38 53 43 0
31 53 43 0
31 38 43 0
31 38 53 0
52 46 33 0
44 46 33 0
44 52 33 0
44 52 46 0
45 57 15 0
61 57 15 0
61 45 15 0
61 45 57 0
51 21 5 0
51 21 62 0
51 21 19 0
51 5 62 0
51 5 19 0
51 62 19 0
21 5 62 0
21 5 19 0
21 62 19 0
5 62 19 0
